c Random generated cnf formula, satisfiable: false
p cnf 10 50
-3 -2 4 0
-2 -4 -5 0
9 7 10 0
8 -9 -10 0
9 6 8 0
5 6 -8 0
-10 1 6 0
-6 -4 2 0
1 2 10 0
-5 10 -2 0
8 9 -10 0
-3 -5 -4 0
6 10 -5 0
10 -6 1 0
-5 -2 1 0
-2 3 7 0
5 4 10 0
-1 6 8 0
-1 3 -6 0
2 9 -6 0
7 -5 2 0
-7 4 9 0
-9 4 -8 0
-2 6 5 0
-6 -5 2 0
7 -10 -8 0
6 4 -1 0
5 2 -3 0
-2 -5 4 0
6 -4 -10 0
-3 -1 5 0
6 -8 4 0
-10 -8 -4 0
5 10 -6 0
9 8 -1 0
6 -1 8 0
4 9 -6 0
10 5 9 0
3 6 8 0
-6 -4 2 0
-3 2 -4 0
-2 8 7 0
9 1 3 0
10 -2 -1 0
-10 8 -1 0
6 4 -5 0
4 7 3 0
-6 -5 1 0
4 3 8 0
-9 3 -10 0
